c CNF file corresponding to a (partial) station packing problem.
p cnf 3321 229
1 2 3 4 5 6 7 8 9 10 11 12 13 14 0
-1 -2 0
-1 -3 0
-1 -4 0
-1 -5 0
-1 -6 0
-1 -7 0
-1 -8 0
-1 -9 0
-1 -10 0
-1 -11 0
-1 -12 0
-1 -13 0
-1 -14 0
-2 -3 0
-2 -4 0
-2 -5 0
-2 -6 0
-2 -7 0
-2 -8 0
-2 -9 0
-2 -10 0
-2 -11 0
-2 -12 0
-2 -13 0
-2 -14 0
-3 -4 0
-3 -5 0
-3 -6 0
-3 -7 0
-3 -8 0
-3 -9 0
-3 -10 0
-3 -11 0
-3 -12 0
-3 -13 0
-3 -14 0
-4 -5 0
-4 -6 0
-4 -7 0
-4 -8 0
-4 -9 0
-4 -10 0
-4 -11 0
-4 -12 0
-4 -13 0
-4 -14 0
-5 -6 0
-5 -7 0
-5 -8 0
-5 -9 0
-5 -10 0
-5 -11 0
-5 -12 0
-5 -13 0
-5 -14 0
-6 -7 0
-6 -8 0
-6 -9 0
-6 -10 0
-6 -11 0
-6 -12 0
-6 -13 0
-6 -14 0
-7 -8 0
-7 -9 0
-7 -10 0
-7 -11 0
-7 -12 0
-7 -13 0
-7 -14 0
-8 -9 0
-8 -10 0
-8 -11 0
-8 -12 0
-8 -13 0
-8 -14 0
-9 -10 0
-9 -11 0
-9 -12 0
-9 -13 0
-9 -14 0
-10 -11 0
-10 -12 0
-10 -13 0
-10 -14 0
-11 -12 0
-11 -13 0
-11 -14 0
-12 -13 0
-12 -14 0
-13 -14 0
3305 3306 3307 3308 3309 3310 3311 3312 3313 3314 3315 3316 3317 3318 3319 3320 3321 0
-3305 -3306 0
-3305 -3307 0
-3305 -3308 0
-3305 -3309 0
-3305 -3310 0
-3305 -3311 0
-3305 -3312 0
-3305 -3313 0
-3305 -3314 0
-3305 -3315 0
-3305 -3316 0
-3305 -3317 0
-3305 -3318 0
-3305 -3319 0
-3305 -3320 0
-3305 -3321 0
-3306 -3307 0
-3306 -3308 0
-3306 -3309 0
-3306 -3310 0
-3306 -3311 0
-3306 -3312 0
-3306 -3313 0
-3306 -3314 0
-3306 -3315 0
-3306 -3316 0
-3306 -3317 0
-3306 -3318 0
-3306 -3319 0
-3306 -3320 0
-3306 -3321 0
-3307 -3308 0
-3307 -3309 0
-3307 -3310 0
-3307 -3311 0
-3307 -3312 0
-3307 -3313 0
-3307 -3314 0
-3307 -3315 0
-3307 -3316 0
-3307 -3317 0
-3307 -3318 0
-3307 -3319 0
-3307 -3320 0
-3307 -3321 0
-3308 -3309 0
-3308 -3310 0
-3308 -3311 0
-3308 -3312 0
-3308 -3313 0
-3308 -3314 0
-3308 -3315 0
-3308 -3316 0
-3308 -3317 0
-3308 -3318 0
-3308 -3319 0
-3308 -3320 0
-3308 -3321 0
-3309 -3310 0
-3309 -3311 0
-3309 -3312 0
-3309 -3313 0
-3309 -3314 0
-3309 -3315 0
-3309 -3316 0
-3309 -3317 0
-3309 -3318 0
-3309 -3319 0
-3309 -3320 0
-3309 -3321 0
-3310 -3311 0
-3310 -3312 0
-3310 -3313 0
-3310 -3314 0
-3310 -3315 0
-3310 -3316 0
-3310 -3317 0
-3310 -3318 0
-3310 -3319 0
-3310 -3320 0
-3310 -3321 0
-3311 -3312 0
-3311 -3313 0
-3311 -3314 0
-3311 -3315 0
-3311 -3316 0
-3311 -3317 0
-3311 -3318 0
-3311 -3319 0
-3311 -3320 0
-3311 -3321 0
-3312 -3313 0
-3312 -3314 0
-3312 -3315 0
-3312 -3316 0
-3312 -3317 0
-3312 -3318 0
-3312 -3319 0
-3312 -3320 0
-3312 -3321 0
-3313 -3314 0
-3313 -3315 0
-3313 -3316 0
-3313 -3317 0
-3313 -3318 0
-3313 -3319 0
-3313 -3320 0
-3313 -3321 0
-3314 -3315 0
-3314 -3316 0
-3314 -3317 0
-3314 -3318 0
-3314 -3319 0
-3314 -3320 0
-3314 -3321 0
-3315 -3316 0
-3315 -3317 0
-3315 -3318 0
-3315 -3319 0
-3315 -3320 0
-3315 -3321 0
-3316 -3317 0
-3316 -3318 0
-3316 -3319 0
-3316 -3320 0
-3316 -3321 0
-3317 -3318 0
-3317 -3319 0
-3317 -3320 0
-3317 -3321 0
-3318 -3319 0
-3318 -3320 0
-3318 -3321 0
-3319 -3320 0
-3319 -3321 0
-3320 -3321 0
